
Gurobi 10.0.3 (linux64, gurobi_cl) logging started Thu Nov  2 11:34:07 2023

Set parameter Username
Set parameter TimeLimit to value 3600
Set parameter LogFile to value "RCPSP_412.log"
Set parameter Threads to value 32
Academic license - for non-commercial use only - expires 2024-10-30
Using license file /home/jrivera6/gurobi-licenses/v1003/compute-0-34/gurobi.lic

Gurobi Optimizer version 10.0.3 build v10.0.3rc0 (linux64)
Copyright (c) 2023, Gurobi Optimization, LLC

Read MPS format model from file RCPSP_412.mps
Reading time = 0.01 seconds
RCPSP_412: 5349 rows, 2080 columns, 17994 nonzeros

CPU model: Intel(R) Xeon(R) Gold 6130 CPU @ 2.10GHz, instruction set [SSE2|AVX|AVX2|AVX512]
Thread count: 32 physical cores, 32 logical processors, using up to 32 threads

Optimize a model with 5349 rows, 2080 columns and 17994 nonzeros
Model fingerprint: 0x35ca603a
Variable types: 32 continuous, 2048 integer (2048 binary)
Coefficient statistics:
  Matrix range     [1e+00, 2e+02]
  Objective range  [1e+00, 1e+00]
  Bounds range     [1e+00, 1e+00]
  RHS range        [1e+00, 2e+02]
Presolve removed 3165 rows and 1245 columns
Presolve time: 0.29s
Presolved: 2184 rows, 835 columns, 7342 nonzeros
Variable types: 31 continuous, 804 integer (804 binary)

Root relaxation: objective 4.700000e+01, 312 iterations, 0.00 seconds (0.00 work units)

    Nodes    |    Current Node    |     Objective Bounds      |     Work
 Expl Unexpl |  Obj  Depth IntInf | Incumbent    BestBd   Gap | It/Node Time

     0     0   47.00000    0   11          -   47.00000      -     -    0s
     0     0   47.00000    0   48          -   47.00000      -     -    0s
     0     0   47.00000    0   53          -   47.00000      -     -    0s
H    0     0                      59.0000000   47.00000  20.3%     -    0s
     0     0   47.00000    0    6   59.00000   47.00000  20.3%     -    0s
     0     0   47.00000    0    4   59.00000   47.00000  20.3%     -    1s
     0     0   47.00000    0    4   59.00000   47.00000  20.3%     -    1s
H    0     0                      57.0000000   47.00000  17.5%     -    1s
     0     0   47.00000    0    4   57.00000   47.00000  17.5%     -    1s
     0     0   47.00000    0    6   57.00000   47.00000  17.5%     -    1s
H    0     0                      49.0000000   47.00000  4.08%     -    1s
     0     0   47.00000    0   17   49.00000   47.00000  4.08%     -    1s
     0     0   47.00000    0   10   49.00000   47.00000  4.08%     -    5s
     0     0   47.00000    0    5   49.00000   47.00000  4.08%     -    5s
     0     0   47.00000    0    6   49.00000   47.00000  4.08%     -    5s
     0     0   47.00000    0    9   49.00000   47.00000  4.08%     -    6s
     0     0   47.00000    0    7   49.00000   47.00000  4.08%     -    6s
     0     0   47.00000    0   17   49.00000   47.00000  4.08%     -    6s
     0     0   47.00000    0   12   49.00000   47.00000  4.08%     -    7s
H    0     0                      49.0000000   47.00000  4.08%     -    7s
     0     0   47.00000    0   15   49.00000   47.00000  4.08%     -    7s
     0     0   47.00000    0   13   49.00000   47.00000  4.08%     -    8s
     0     0   47.00000    0   13   49.00000   47.00000  4.08%     -    8s
     0     2   47.00000    0   13   49.00000   47.00000  4.08%     -    9s
    26    16   48.00000    5   21   49.00000   47.40000  3.27%  20.9   10s
H   29    16                      48.0000000   47.40000  1.25%  19.8   10s

Cutting planes:
  Learned: 2
  Gomory: 3
  Cover: 22
  Implied bound: 19
  Clique: 16
  MIR: 26
  StrongCG: 1
  RLT: 2
  Relax-and-lift: 23

Explored 39 nodes (4633 simplex iterations) in 10.30 seconds (0.55 work units)
Thread count was 32 (of 32 available processors)

Solution count 5: 48 49 49 ... 59

Optimal solution found (tolerance 1.00e-04)
Best objective 4.800000000000e+01, best bound 4.800000000000e+01, gap 0.0000%

Wrote result file 'RCPSP_412.sol'

